s td 190 12 224
b 1 181 184 186
b 2 182 183 185
b 3 59 183 185
b 4 60 184 186
b 5 59 185 217
b 6 60 186 218
b 7 187 190 192
b 8 188 189 191
b 9 35 189 191
b 10 36 190 192
b 11 29 35 191
b 12 30 36 192
b 13 203 206 208
b 14 204 205 207
b 15 39 205 207
b 16 40 206 208
b 17 39 97 207
b 18 40 98 208
b 19 219 222 224
b 20 220 221 223
b 21 179 221 223
b 22 180 222 224
b 23 57 179 223
b 24 58 180 224
b 25 1 5 6 9 10 17 49 50 153 154
b 26 4 5 6 9 10 17
b 27 2 4 5 10 17
b 28 2 4 7 17
b 29 1 5 9 17 49 50 101 102 147 148 153 154
b 30 1 3 5 9 17 101 102 147 148
b 31 1 3 8 17 101 102 147 148
b 32 8 15 17 101 102 147 148
b 33 8 11 15 17 102 147 148
b 34 11 15 17 20 148
b 35 12 15 17 20
b 36 8 11 15 17 19 102 147
b 37 8 11 13 15 19
b 38 8 11 13 18
b 39 11 16 17 19 102
b 40 14 16 17 19
b 41 27 28 49 50 101 102 147 148 153 154 163 164
b 42 27 28 29 30 101 102 163 164 165 166 167 168
b 43 27 28 29 30 163 164 165 166 167 168 170
b 44 21 27 28 29 30 170
b 45 21 26 27 29 170
b 46 24 26 27 29
b 47 155 164 166 168 170
b 48 156 163 165 168 170
b 49 157 163 166 167 170
b 50 158 164 165 167 170
b 51 22 27 28 29 30 163 164 165 166 167 168
b 52 22 28 29 163 164 165 166 167 168 169
b 53 22 25 28 29 169
b 54 23 25 28 29
b 55 159 163 166 168 169
b 56 160 164 165 168 169
b 57 161 164 166 167 169
b 58 162 163 165 167 169
b 59 29 30 100 101 102 165 166 167 168
b 60 29 30 99 100 101 102 165 167 168
b 61 29 30 38 99 100 101 102 167 168
b 62 29 30 37 38 99 100 101 102 167
b 63 29 30 36 37 38 99 100 101 102
b 64 29 35 36 37 38 99 100 101 102
b 65 35 36 37 38 96 99 100 101 102
b 66 31 35 36 37 38 96 100 102
b 67 31 35 37 93 96 100 102
b 68 31 35 37 93 96 98
b 69 31 32 35 37 98
b 70 31 32 40 98
b 71 34 35 36 37 38 99 100 101 102
b 72 33 34 35 38 99 100 101 102
b 73 33 34 95 99 100 101 102
b 74 33 34 94 95 99 102
b 75 33 34 94 95 97
b 76 33 34 39 97
b 77 27 28 49 50 147 148 150 153 154 163 164
b 78 27 28 49 50 147 148 149 150 153 154 163
b 79 27 28 48 49 50 147 148 149 150 153 154
b 80 27 47 48 49 50 147 148 149 150 153 154
b 81 44 47 48 49 50 147 148 149 150 153 154
b 82 44 48 50 147 148 149 150 152 153 154
b 83 44 46 48 50 152
b 84 41 46 48 50
b 85 139 148 150 152 154
b 86 140 147 149 152 154
b 87 143 147 150 152 153
b 88 144 148 149 152 153
b 89 47 48 49 50 147 148 149 150 151 153 154
b 90 45 47 48 49 50 151
b 91 42 45 47 50
b 92 43 45 48 49
b 93 141 147 150 151 154
b 94 142 148 149 151 154
b 95 145 148 150 151 153
b 96 146 147 149 151 153
b 97 5 6 9 10 49 50 109 110 135 136 153 154
b 98 5 6 69 70 109 110 135 136 197 198 215 216
b 99 5 6 57 58 69 70 75 76 197 198 215 216
b 100 57 58 69 70 73 74 75 76 215 216 217 218
b 101 57 58 60 73 74 217 218
b 102 57 58 59 60 73 74 217
b 103 54 57 58 59 60 74
b 104 51 54 58 60 74
b 105 51 54 56 74
b 106 52 57 58 59 60 73
b 107 52 53 58 59 73
b 108 52 53 55 73
b 109 69 70 73 74 75 76 209 215 216 217 218
b 110 69 70 72 73 74 75 76 209 215 217
b 111 61 70 72 74 76
b 112 63 69 72 73 76
b 113 65 69 72 74 75
b 114 67 70 72 73 75
b 115 72 209 214 215 217
b 116 212 214 215 217
b 117 69 70 73 74 75 76 211 215 216 217 218
b 118 69 70 71 73 74 75 76 211 215 218
b 119 62 69 71 74 76
b 120 64 70 71 73 76
b 121 66 70 71 74 75
b 122 68 69 71 73 75
b 123 71 210 211 215 218
b 124 71 210 211 213
b 125 5 6 57 58 75 76 197 198 202
b 126 5 57 58 75 76 197 198 201 202
b 127 57 58 75 76 180 197 198 201 202
b 128 57 75 76 179 180 197 198 201 202
b 129 75 76 178 179 180 197 198 201 202
b 130 75 177 178 179 180 197 198 201 202
b 131 177 178 179 180 197 198 200 201 202
b 132 176 177 178 179 180 200
b 133 171 176 178 180
b 134 174 176 177 179
b 135 193 198 200 202
b 136 195 197 200 201
b 137 177 178 179 180 196 197 198 201 202
b 138 173 177 178 179 180 196 197 202
b 139 172 173 177 180 196 197 202
b 140 172 173 175 196 197 202
b 141 175 196 197 199 202
b 142 194 197 199 202
b 143 69 70 109 110 135 136 138 197 198 215 216
b 144 69 70 109 110 135 136 137 138 197 215 216
b 145 69 70 109 110 134 135 136 137 138 215 216
b 146 69 109 110 133 134 135 136 137 138 215 216
b 147 109 110 112 133 134 135 136 137 138 215 216
b 148 109 110 111 112 133 134 135 136 137 138 215
b 149 109 110 111 112 132 133 134 135 136 137 138
b 150 106 109 110 111 112 132
b 151 106 108 110 112 132
b 152 103 108 110 112
b 153 123 132 134 136 138
b 154 126 132 133 135 138
b 155 128 132 133 136 137
b 156 129 132 134 135 137
b 157 109 110 111 112 131 133 134 135 136 137 138
b 158 104 109 110 111 112 131
b 159 104 107 110 111 131
b 160 105 107 110 111
b 161 124 131 133 136 138
b 162 125 131 134 135 138
b 163 127 131 134 136 137
b 164 130 131 133 135 137
b 165 9 10 49 50 109 110 120 135 136 153 154
b 166 9 10 49 50 109 119 120 135 136 153 154
b 167 9 10 49 50 118 119 120 135 136 153 154
b 168 9 10 49 117 118 119 120 135 136 153 154
b 169 9 10 90 117 118 119 120 135 136 153 154
b 170 9 10 89 90 117 118 119 120 135 136 153
b 171 9 10 88 89 90 117 118 119 120 135 136
b 172 9 87 88 89 90 117 118 119 120 135 136
b 173 86 87 88 89 90 117 118 119 120 135 136
b 174 85 86 87 88 89 90 117 118 119 120 135
b 175 85 86 87 88 89 90 92 117 118 119 120
b 176 77 86 88 90 92
b 177 78 85 87 90 92
b 178 79 85 88 89 92
b 179 80 86 87 89 92
b 180 92 114 117 118 119 120
b 181 92 114 118 120 122
b 182 113 118 120 122
b 183 85 86 87 88 89 90 91 117 118 119 120
b 184 81 85 88 90 91
b 185 82 86 87 90 91
b 186 83 86 88 89 91
b 187 84 85 87 89 91
b 188 91 115 117 118 119 120
b 189 91 115 118 119 121
b 190 116 118 119 121
1 4
2 3
3 5
4 6
5 102
6 101
7 10
8 9
9 11
10 12
11 64
12 63
13 16
14 15
15 17
16 18
17 76
18 70
19 22
20 21
21 23
22 24
23 128
24 127
25 26
25 29
25 97
26 27
27 28
29 30
29 41
30 31
31 32
32 33
33 34
33 36
34 35
36 37
36 39
37 38
39 40
41 42
41 77
42 43
42 51
42 59
43 44
43 47
43 48
43 49
43 50
44 45
45 46
51 52
52 53
52 55
52 56
52 57
52 58
53 54
59 60
60 61
61 62
62 63
63 64
64 65
64 71
65 66
66 67
67 68
68 69
69 70
71 72
72 73
73 74
74 75
75 76
77 78
78 79
79 80
80 81
80 89
81 82
82 83
82 85
82 86
82 87
82 88
83 84
89 90
89 93
89 94
89 95
89 96
90 91
90 92
97 98
97 165
98 99
98 143
99 100
99 125
100 101
100 109
100 117
101 102
102 103
102 106
103 104
104 105
106 107
107 108
109 110
110 111
110 112
110 113
110 114
110 115
115 116
117 118
118 119
118 120
118 121
118 122
118 123
123 124
125 126
126 127
127 128
128 129
129 130
130 131
130 137
131 132
131 135
131 136
132 133
132 134
137 138
138 139
139 140
140 141
141 142
143 144
144 145
145 146
146 147
147 148
148 149
148 157
149 150
149 153
149 154
149 155
149 156
150 151
151 152
157 158
157 161
157 162
157 163
157 164
158 159
159 160
165 166
166 167
167 168
168 169
169 170
170 171
171 172
172 173
173 174
174 175
174 183
175 176
175 177
175 178
175 179
175 180
180 181
181 182
183 184
183 185
183 186
183 187
183 188
188 189
189 190
